files/upTests/_functions/setOfFuncSetNested/0001.eprime.solution
language ESSENCE' 1.0

letting fs_Explicit_Matrix1D_Explicit_Occurrence be
        [[
          [[0, 1, 1, 1; int(1..4)], [1, 0, 1, 1; int(1..4)]; int(1..2)],
          [[0, 1, 1, 1; int(1..4)], [1, 0, 1, 1; int(1..4)]; int(1..2)],
          [[0, 1, 1, 1; int(1..4)], [1, 0, 1, 1; int(1..4)]; int(1..2)] 
            ;int(1..3)]; int(1..1)]
such that true

